GAACT_v0/CEOA/8/115/gurobi.lp
\ LP format - for model browsing. Use MPS format to capture full model detail.
Minimize
  2.66 hs + 5.05 fs + 2.66 ac32s + 4.78 ac42s
Subject To
 R0: V0_0 = 1
 R1: V0_1 = 2
 R2: V0_2 = 3
 R3: V0_3 = 4
 R4: V0_4 = 5
 R5: V0_5 = 6
 R6: V0_6 = 7
 R7: V0_7 = 8
 R8: V0_8 = 7
 R9: V0_9 = 6
 R10: V0_10 = 5
 R11: V0_11 = 4
 R12: V0_12 = 3
 R13: V0_13 = 2
 R14: V0_14 = 1
 R15: V0_15 = 0
 R16: V0_16 = 0
 R17: V1_0 = 1
 R18: f1_0 = 0
 R19: h1_0 = 0
 R20: 32ac1_0 = 0
 R21: 42ac1_0 = 0
 R22: e1_0 = 0
 R23: - 0.015625 32ac1_1 - 0.0546875 42ac1_1 + e1_1 = 0
 R24: - V0_1 + 3 f1_1 + 2 h1_1 + 3 32ac1_1 + 4 42ac1_1 <= 0
 R25: - V0_1 - f1_0 - h1_0 + 2 f1_1 + h1_1 + 32ac1_1 + 2 42ac1_1 + V1_1
   = 0
 R26: - 0.015625 32ac1_2 - 0.0546875 42ac1_2 + e1_2 = 0
 R27: - V0_2 + 3 f1_2 + 2 h1_2 + 3 32ac1_2 + 4 42ac1_2 <= 0
 R28: - V0_2 - f1_1 - h1_1 + 2 f1_2 + h1_2 + 32ac1_2 + 2 42ac1_2 + V1_2
   = 0
 R29: - 0.015625 32ac1_3 - 0.0546875 42ac1_3 + e1_3 = 0
 R30: - V0_3 + 3 f1_3 + 2 h1_3 + 3 32ac1_3 + 4 42ac1_3 <= 0
 R31: - V0_3 - f1_2 - h1_2 + 2 f1_3 + h1_3 + 32ac1_3 + 2 42ac1_3 + V1_3
   = 0
 R32: - 0.015625 32ac1_4 - 0.0546875 42ac1_4 + e1_4 = 0
 R33: - V0_4 + 3 f1_4 + 2 h1_4 + 3 32ac1_4 + 4 42ac1_4 <= 0
 R34: - V0_4 - f1_3 - h1_3 + 2 f1_4 + h1_4 + 32ac1_4 + 2 42ac1_4 + V1_4
   = 0
 R35: - 0.015625 32ac1_5 - 0.0546875 42ac1_5 + e1_5 = 0
 R36: - V0_5 + 3 f1_5 + 2 h1_5 + 3 32ac1_5 + 4 42ac1_5 <= 0
 R37: - V0_5 - f1_4 - h1_4 + 2 f1_5 + h1_5 + 32ac1_5 + 2 42ac1_5 + V1_5
   = 0
 R38: - 0.015625 32ac1_6 - 0.0546875 42ac1_6 + e1_6 = 0
 R39: - V0_6 + 3 f1_6 + 2 h1_6 + 3 32ac1_6 + 4 42ac1_6 <= 0
 R40: - V0_6 - f1_5 - h1_5 + 2 f1_6 + h1_6 + 32ac1_6 + 2 42ac1_6 + V1_6
   = 0
 R41: - 0.015625 32ac1_7 - 0.0546875 42ac1_7 + e1_7 = 0
 R42: - V0_7 + 3 f1_7 + 2 h1_7 + 3 32ac1_7 + 4 42ac1_7 <= 0
 R43: - V0_7 - f1_6 - h1_6 + 2 f1_7 + h1_7 + 32ac1_7 + 2 42ac1_7 + V1_7
   = 0
 R44: - 0.015625 32ac1_8 - 0.0546875 42ac1_8 + e1_8 = 0
 R45: - V0_8 + 3 f1_8 + 2 h1_8 + 3 32ac1_8 + 4 42ac1_8 <= 0
 R46: - V0_8 - f1_7 - h1_7 + 2 f1_8 + h1_8 + 32ac1_8 + 2 42ac1_8 + V1_8
   = 0
 R47: - 0.015625 32ac1_9 - 0.0546875 42ac1_9 + e1_9 = 0
 R48: - V0_9 + 3 f1_9 + 2 h1_9 + 3 32ac1_9 + 4 42ac1_9 <= 0
 R49: - V0_9 - f1_8 - h1_8 + 2 f1_9 + h1_9 + 32ac1_9 + 2 42ac1_9 + V1_9
   = 0
 R50: - 0.015625 32ac1_10 - 0.0546875 42ac1_10 + e1_10 = 0
 R51: - V0_10 + 3 f1_10 + 2 h1_10 + 3 32ac1_10 + 4 42ac1_10 <= 0
 R52: - V0_10 - f1_9 - h1_9 + 2 f1_10 + h1_10 + 32ac1_10 + 2 42ac1_10
   + V1_10 = 0
 R53: - 0.015625 32ac1_11 - 0.0546875 42ac1_11 + e1_11 = 0
 R54: - V0_11 + 3 f1_11 + 2 h1_11 + 3 32ac1_11 + 4 42ac1_11 <= 0
 R55: - V0_11 - f1_10 - h1_10 + 2 f1_11 + h1_11 + 32ac1_11 + 2 42ac1_11
   + V1_11 = 0
 R56: - 0.015625 32ac1_12 - 0.0546875 42ac1_12 + e1_12 = 0
 R57: - V0_12 + 3 f1_12 + 2 h1_12 + 3 32ac1_12 + 4 42ac1_12 <= 0
 R58: - V0_12 - f1_11 - h1_11 + 2 f1_12 + h1_12 + 32ac1_12 + 2 42ac1_12
   + V1_12 = 0
 R59: - 0.015625 32ac1_13 - 0.0546875 42ac1_13 + e1_13 = 0
 R60: - V0_13 + 3 f1_13 + 2 h1_13 + 3 32ac1_13 + 4 42ac1_13 <= 0
 R61: - V0_13 - f1_12 - h1_12 + 2 f1_13 + h1_13 + 32ac1_13 + 2 42ac1_13
   + V1_13 = 0
 R62: - 0.015625 32ac1_14 - 0.0546875 42ac1_14 + e1_14 = 0
 R63: - V0_14 + 3 f1_14 + 2 h1_14 + 3 32ac1_14 + 4 42ac1_14 <= 0
 R64: - V0_14 - f1_13 - h1_13 + 2 f1_14 + h1_14 + 32ac1_14 + 2 42ac1_14
   + V1_14 = 0
 R65: - 0.015625 32ac1_15 - 0.0546875 42ac1_15 + e1_15 = 0
 R66: - V0_15 + 3 f1_15 + 2 h1_15 + 3 32ac1_15 + 4 42ac1_15 <= 0
 R67: - V0_15 - f1_14 - h1_14 + 2 f1_15 + h1_15 + 32ac1_15 + 2 42ac1_15
   + V1_15 = 0
 R68: - 0.015625 32ac1_16 - 0.0546875 42ac1_16 + e1_16 = 0
 R69: - V0_16 + 3 f1_16 + 2 h1_16 + 3 32ac1_16 + 4 42ac1_16 <= 0
 R70: - V0_16 - f1_15 - h1_15 + 2 f1_16 + h1_16 + 32ac1_16 + 2 42ac1_16
   + V1_16 = 0
 R71: V2_0 = 1
 R72: f2_0 = 0
 R73: h2_0 = 0
 R74: 32ac2_0 = 0
 R75: 42ac2_0 = 0
 R76: e2_0 = 0
 R77: - 0.015625 32ac2_1 - 0.0546875 42ac2_1 + e2_1 = 0
 R78: - V1_1 + 3 f2_1 + 2 h2_1 + 3 32ac2_1 + 4 42ac2_1 <= 0
 R79: - V1_1 - f2_0 - h2_0 + 2 f2_1 + h2_1 + 32ac2_1 + 2 42ac2_1 + V2_1
   = 0
 R80: - 0.015625 32ac2_2 - 0.0546875 42ac2_2 + e2_2 = 0
 R81: - V1_2 + 3 f2_2 + 2 h2_2 + 3 32ac2_2 + 4 42ac2_2 <= 0
 R82: - V1_2 - f2_1 - h2_1 + 2 f2_2 + h2_2 + 32ac2_2 + 2 42ac2_2 + V2_2
   = 0
 R83: - 0.015625 32ac2_3 - 0.0546875 42ac2_3 + e2_3 = 0
 R84: - V1_3 + 3 f2_3 + 2 h2_3 + 3 32ac2_3 + 4 42ac2_3 <= 0
 R85: - V1_3 - f2_2 - h2_2 + 2 f2_3 + h2_3 + 32ac2_3 + 2 42ac2_3 + V2_3
   = 0
 R86: - 0.015625 32ac2_4 - 0.0546875 42ac2_4 + e2_4 = 0
 R87: - V1_4 + 3 f2_4 + 2 h2_4 + 3 32ac2_4 + 4 42ac2_4 <= 0
 R88: - V1_4 - f2_3 - h2_3 + 2 f2_4 + h2_4 + 32ac2_4 + 2 42ac2_4 + V2_4
   = 0
 R89: - 0.015625 32ac2_5 - 0.0546875 42ac2_5 + e2_5 = 0
 R90: - V1_5 + 3 f2_5 + 2 h2_5 + 3 32ac2_5 + 4 42ac2_5 <= 0
 R91: - V1_5 - f2_4 - h2_4 + 2 f2_5 + h2_5 + 32ac2_5 + 2 42ac2_5 + V2_5
   = 0
 R92: - 0.015625 32ac2_6 - 0.0546875 42ac2_6 + e2_6 = 0
 R93: - V1_6 + 3 f2_6 + 2 h2_6 + 3 32ac2_6 + 4 42ac2_6 <= 0
 R94: - V1_6 - f2_5 - h2_5 + 2 f2_6 + h2_6 + 32ac2_6 + 2 42ac2_6 + V2_6
   = 0
 R95: - 0.015625 32ac2_7 - 0.0546875 42ac2_7 + e2_7 = 0
 R96: - V1_7 + 3 f2_7 + 2 h2_7 + 3 32ac2_7 + 4 42ac2_7 <= 0
 R97: - V1_7 - f2_6 - h2_6 + 2 f2_7 + h2_7 + 32ac2_7 + 2 42ac2_7 + V2_7
   = 0
 R98: - 0.015625 32ac2_8 - 0.0546875 42ac2_8 + e2_8 = 0
 R99: - V1_8 + 3 f2_8 + 2 h2_8 + 3 32ac2_8 + 4 42ac2_8 <= 0
 R100: - V1_8 - f2_7 - h2_7 + 2 f2_8 + h2_8 + 32ac2_8 + 2 42ac2_8 + V2_8
   = 0
 R101: - 0.015625 32ac2_9 - 0.0546875 42ac2_9 + e2_9 = 0
 R102: - V1_9 + 3 f2_9 + 2 h2_9 + 3 32ac2_9 + 4 42ac2_9 <= 0
 R103: - V1_9 - f2_8 - h2_8 + 2 f2_9 + h2_9 + 32ac2_9 + 2 42ac2_9 + V2_9
   = 0
 R104: - 0.015625 32ac2_10 - 0.0546875 42ac2_10 + e2_10 = 0
 R105: - V1_10 + 3 f2_10 + 2 h2_10 + 3 32ac2_10 + 4 42ac2_10 <= 0
 R106: - V1_10 - f2_9 - h2_9 + 2 f2_10 + h2_10 + 32ac2_10 + 2 42ac2_10
   + V2_10 = 0
 R107: - 0.015625 32ac2_11 - 0.0546875 42ac2_11 + e2_11 = 0
 R108: - V1_11 + 3 f2_11 + 2 h2_11 + 3 32ac2_11 + 4 42ac2_11 <= 0
 R109: - V1_11 - f2_10 - h2_10 + 2 f2_11 + h2_11 + 32ac2_11 + 2 42ac2_11
   + V2_11 = 0
 R110: - 0.015625 32ac2_12 - 0.0546875 42ac2_12 + e2_12 = 0
 R111: - V1_12 + 3 f2_12 + 2 h2_12 + 3 32ac2_12 + 4 42ac2_12 <= 0
 R112: - V1_12 - f2_11 - h2_11 + 2 f2_12 + h2_12 + 32ac2_12 + 2 42ac2_12
   + V2_12 = 0
 R113: - 0.015625 32ac2_13 - 0.0546875 42ac2_13 + e2_13 = 0
 R114: - V1_13 + 3 f2_13 + 2 h2_13 + 3 32ac2_13 + 4 42ac2_13 <= 0
 R115: - V1_13 - f2_12 - h2_12 + 2 f2_13 + h2_13 + 32ac2_13 + 2 42ac2_13
   + V2_13 = 0
 R116: - 0.015625 32ac2_14 - 0.0546875 42ac2_14 + e2_14 = 0
 R117: - V1_14 + 3 f2_14 + 2 h2_14 + 3 32ac2_14 + 4 42ac2_14 <= 0
 R118: - V1_14 - f2_13 - h2_13 + 2 f2_14 + h2_14 + 32ac2_14 + 2 42ac2_14
   + V2_14 = 0
 R119: - 0.015625 32ac2_15 - 0.0546875 42ac2_15 + e2_15 = 0
 R120: - V1_15 + 3 f2_15 + 2 h2_15 + 3 32ac2_15 + 4 42ac2_15 <= 0
 R121: - V1_15 - f2_14 - h2_14 + 2 f2_15 + h2_15 + 32ac2_15 + 2 42ac2_15
   + V2_15 = 0
 R122: - 0.015625 32ac2_16 - 0.0546875 42ac2_16 + e2_16 = 0
 R123: - V1_16 + 3 f2_16 + 2 h2_16 + 3 32ac2_16 + 4 42ac2_16 <= 0
 R124: - V1_16 - f2_15 - h2_15 + 2 f2_16 + h2_16 + 32ac2_16 + 2 42ac2_16
   + V2_16 = 0
 R125: V2_0 <= 2
 R126: V2_0 >= 1
 R127: V2_1 <= 2
 R128: V2_1 >= 1
 R129: V2_2 <= 2
 R130: V2_2 >= 1
 R131: V2_3 <= 2
 R132: V2_3 >= 1
 R133: V2_4 <= 2
 R134: V2_4 >= 1
 R135: V2_5 <= 2
 R136: V2_5 >= 1
 R137: V2_6 <= 2
 R138: V2_6 >= 1
 R139: V2_7 <= 2
 R140: V2_7 >= 1
 R141: V2_8 <= 2
 R142: V2_8 >= 1
 R143: V2_9 <= 2
 R144: V2_9 >= 1
 R145: V2_10 <= 2
 R146: V2_10 >= 1
 R147: V2_11 <= 2
 R148: V2_11 >= 1
 R149: V2_12 <= 2
 R150: V2_12 >= 1
 R151: V2_13 <= 2
 R152: V2_13 >= 1
 R153: V2_14 <= 2
 R154: V2_14 >= 1
 R155: V2_15 <= 2
 R156: f1_0 + f1_1 + f1_2 + f1_3 + f1_4 + f1_5 + f1_6 + f1_7 + f1_8 + f1_9
   + f1_10 + f1_11 + f1_12 + f1_13 + f1_14 + f1_15 + f1_16 + f2_0 + f2_1
   + f2_2 + f2_3 + f2_4 + f2_5 + f2_6 + f2_7 + f2_8 + f2_9 + f2_10 + f2_11
   + f2_12 + f2_13 + f2_14 + f2_15 + f2_16 - fs = 0
 R157: h1_0 + h1_1 + h1_2 + h1_3 + h1_4 + h1_5 + h1_6 + h1_7 + h1_8 + h1_9
   + h1_10 + h1_11 + h1_12 + h1_13 + h1_14 + h1_15 + h1_16 + h2_0 + h2_1
   + h2_2 + h2_3 + h2_4 + h2_5 + h2_6 + h2_7 + h2_8 + h2_9 + h2_10 + h2_11
   + h2_12 + h2_13 + h2_14 + h2_15 + h2_16 - hs = 0
 R158: 32ac1_0 + 32ac1_1 + 32ac1_2 + 32ac1_3 + 32ac1_4 + 32ac1_5 + 32ac1_6
   + 32ac1_7 + 32ac1_8 + 32ac1_9 + 32ac1_10 + 32ac1_11 + 32ac1_12
   + 32ac1_13 + 32ac1_14 + 32ac1_15 + 32ac1_16 + 32ac2_0 + 32ac2_1
   + 32ac2_2 + 32ac2_3 + 32ac2_4 + 32ac2_5 + 32ac2_6 + 32ac2_7 + 32ac2_8
   + 32ac2_9 + 32ac2_10 + 32ac2_11 + 32ac2_12 + 32ac2_13 + 32ac2_14
   + 32ac2_15 + 32ac2_16 - ac32s = 0
 R159: 42ac1_0 + 42ac1_1 + 42ac1_2 + 42ac1_3 + 42ac1_4 + 42ac1_5 + 42ac1_6
   + 42ac1_7 + 42ac1_8 + 42ac1_9 + 42ac1_10 + 42ac1_11 + 42ac1_12
   + 42ac1_13 + 42ac1_14 + 42ac1_15 + 42ac1_16 + 42ac2_0 + 42ac2_1
   + 42ac2_2 + 42ac2_3 + 42ac2_4 + 42ac2_5 + 42ac2_6 + 42ac2_7 + 42ac2_8
   + 42ac2_9 + 42ac2_10 + 42ac2_11 + 42ac2_12 + 42ac2_13 + 42ac2_14
   + 42ac2_15 + 42ac2_16 - ac42s = 0
 R160: - e1_0 - e2_0 + E_0 = 0
 R161: - e1_1 - e2_1 + E_1 = 0
 R162: - e1_2 - e2_2 + E_2 = 0
 R163: - e1_3 - e2_3 + E_3 = 0
 R164: - e1_4 - e2_4 + E_4 = 0
 R165: - e1_5 - e2_5 + E_5 = 0
 R166: - e1_6 - e2_6 + E_6 = 0
 R167: - e1_7 - e2_7 + E_7 = 0
 R168: - e1_8 - e2_8 + E_8 = 0
 R169: - e1_9 - e2_9 + E_9 = 0
 R170: - e1_10 - e2_10 + E_10 = 0
 R171: - e1_11 - e2_11 + E_11 = 0
 R172: - e1_12 - e2_12 + E_12 = 0
 R173: - e1_13 - e2_13 + E_13 = 0
 R174: - e1_14 - e2_14 + E_14 = 0
 R175: - e1_15 - e2_15 + E_15 = 0
 R176: - e1_16 - e2_16 + E_16 = 0
 R177: - E_0 - 2 E_1 - 4 E_2 - 8 E_3 - 16 E_4 - 32 E_5 - 64 E_6 - 128 E_7
   - 256 E_8 - 512 E_9 - 1024 E_10 - 2048 E_11 - 4096 E_12 - 8192 E_13
   - 16384 E_14 - 32768 E_15 - 65536 E_16 + E = 0
 R178: E <= 115
Bounds
Generals
 V0_0 V0_1 V0_2 V0_3 V0_4 V0_5 V0_6 V0_7 V0_8 V0_9 V0_10 V0_11 V0_12 V0_13
 V0_14 V0_15 V0_16 f1_0 h1_0 32ac1_0 42ac1_0 V1_0 f1_1 h1_1 32ac1_1 42ac1_1
 V1_1 f1_2 h1_2 32ac1_2 42ac1_2 V1_2 f1_3 h1_3 32ac1_3 42ac1_3 V1_3 f1_4
 h1_4 32ac1_4 42ac1_4 V1_4 f1_5 h1_5 32ac1_5 42ac1_5 V1_5 f1_6 h1_6 32ac1_6
 42ac1_6 V1_6 f1_7 h1_7 32ac1_7 42ac1_7 V1_7 f1_8 h1_8 32ac1_8 42ac1_8 V1_8
 f1_9 h1_9 32ac1_9 42ac1_9 V1_9 f1_10 h1_10 32ac1_10 42ac1_10 V1_10 f1_11
 h1_11 32ac1_11 42ac1_11 V1_11 f1_12 h1_12 32ac1_12 42ac1_12 V1_12 f1_13
 h1_13 32ac1_13 42ac1_13 V1_13 f1_14 h1_14 32ac1_14 42ac1_14 V1_14 f1_15
 h1_15 32ac1_15 42ac1_15 V1_15 f1_16 h1_16 32ac1_16 42ac1_16 V1_16 f2_0
 h2_0 32ac2_0 42ac2_0 V2_0 f2_1 h2_1 32ac2_1 42ac2_1 V2_1 f2_2 h2_2 32ac2_2
 42ac2_2 V2_2 f2_3 h2_3 32ac2_3 42ac2_3 V2_3 f2_4 h2_4 32ac2_4 42ac2_4 V2_4
 f2_5 h2_5 32ac2_5 42ac2_5 V2_5 f2_6 h2_6 32ac2_6 42ac2_6 V2_6 f2_7 h2_7
 32ac2_7 42ac2_7 V2_7 f2_8 h2_8 32ac2_8 42ac2_8 V2_8 f2_9 h2_9 32ac2_9
 42ac2_9 V2_9 f2_10 h2_10 32ac2_10 42ac2_10 V2_10 f2_11 h2_11 32ac2_11
 42ac2_11 V2_11 f2_12 h2_12 32ac2_12 42ac2_12 V2_12 f2_13 h2_13 32ac2_13
 42ac2_13 V2_13 f2_14 h2_14 32ac2_14 42ac2_14 V2_14 f2_15 h2_15 32ac2_15
 42ac2_15 V2_15 f2_16 h2_16 32ac2_16 42ac2_16 V2_16 hs fs ac32s ac42s
End
