GAACT_v0/CEOA/8/115/gurobi.sol
# Objective value = 103.89
V0_0 1
V0_1 2
V0_2 3
V0_3 4
V0_4 5
V0_5 6
V0_6 7
V0_7 8
V0_8 7
V0_9 6
V0_10 5
V0_11 4
V0_12 3
V0_13 2
V0_14 1
V0_15 0
V0_16 0
f1_0 0
h1_0 0
32ac1_0 0
42ac1_0 0
e1_0 0
V1_0 1
f1_1 0
h1_1 0
32ac1_1 0
42ac1_1 0
e1_1 0
V1_1 2
f1_2 0
h1_2 0
32ac1_2 1
42ac1_2 0
e1_2 0.015625
V1_2 2
f1_3 0
h1_3 0
32ac1_3 0
42ac1_3 1
e1_3 0.0546875
V1_3 2
f1_4 0
h1_4 0
32ac1_4 1
42ac1_4 0
e1_4 0.015625
V1_4 4
f1_5 0
h1_5 0
32ac1_5 0
42ac1_5 1
e1_5 0.0546875
V1_5 4
f1_6 0
h1_6 0
32ac1_6 1
42ac1_6 1
e1_6 0.0703125
V1_6 4
f1_7 0
h1_7 0
32ac1_7 0
42ac1_7 2
e1_7 0.109375
V1_7 4
f1_8 0
h1_8 0
32ac1_8 1
42ac1_8 1
e1_8 0.0703125
V1_8 4
f1_9 0
h1_9 0
32ac1_9 2
42ac1_9 0
e1_9 0.03125
V1_9 4
f1_10 1
h1_10 0
32ac1_10 0
42ac1_10 0
e1_10 0
V1_10 3
f1_11 1
h1_11 0
32ac1_11 0
42ac1_11 0
e1_11 0
V1_11 3
f1_12 0
h1_12 1
32ac1_12 0
42ac1_12 0
e1_12 0
V1_12 3
f1_13 0
h1_13 0
32ac1_13 0
42ac1_13 0
e1_13 0
V1_13 3
f1_14 0
h1_14 0
32ac1_14 0
42ac1_14 0
e1_14 0
V1_14 1
f1_15 0
h1_15 0
32ac1_15 0
42ac1_15 0
e1_15 0
V1_15 0
f1_16 0
h1_16 0
32ac1_16 0
42ac1_16 0
e1_16 0
V1_16 0
f2_0 0
h2_0 0
32ac2_0 0
42ac2_0 0
e2_0 0
V2_0 1
f2_1 0
h2_1 0
32ac2_1 0
42ac2_1 0
e2_1 0
V2_1 2
f2_2 0
h2_2 0
32ac2_2 0
42ac2_2 0
e2_2 0
V2_2 2
f2_3 0
h2_3 0
32ac2_3 0
42ac2_3 0
e2_3 0
V2_3 2
f2_4 0
h2_4 0
32ac2_4 0
42ac2_4 1
e2_4 0.0546875
V2_4 2
f2_5 0
h2_5 0
32ac2_5 0
42ac2_5 1
e2_5 0.0546875
V2_5 2
f2_6 0
h2_6 0
32ac2_6 0
42ac2_6 1
e2_6 0.0546875
V2_6 2
f2_7 0
h2_7 0
32ac2_7 0
42ac2_7 1
e2_7 0.0546875
V2_7 2
f2_8 0
h2_8 0
32ac2_8 0
42ac2_8 1
e2_8 0.0546875
V2_8 2
f2_9 0
h2_9 0
32ac2_9 0
42ac2_9 1
e2_9 0.0546875
V2_9 2
f2_10 0
h2_10 1
32ac2_10 0
42ac2_10 0
e2_10 0
V2_10 2
f2_11 1
h2_11 0
32ac2_11 0
42ac2_11 0
e2_11 0
V2_11 2
f2_12 1
h2_12 0
32ac2_12 0
42ac2_12 0
e2_12 0
V2_12 2
f2_13 1
h2_13 0
32ac2_13 0
42ac2_13 0
e2_13 0
V2_13 2
f2_14 0
h2_14 0
32ac2_14 0
42ac2_14 0
e2_14 0
V2_14 2
f2_15 0
h2_15 0
32ac2_15 0
42ac2_15 0
e2_15 0
V2_15 0
f2_16 0
h2_16 0
32ac2_16 0
42ac2_16 0
e2_16 0
V2_16 0
hs 2
fs 5
ac32s 6
ac42s 12
E_0 0
E_1 0
E_2 0.015625
E_3 0.0546875
E_4 0.0703125
E_5 0.109375
E_6 0.125
E_7 0.1640625
E_8 0.125
E_9 0.0859375
E_10 0
E_11 0
E_12 0
E_13 0
E_14 0
E_15 0
E_16 0
E 110.125
